ALGO = Fast
BMIX = 1
EDIFF = 1e-05
IBRION = 0
ICHARG = 1
ISIF = 0
ISMEAR = 0
ISPIN = 1
ISYM = 0
KBLOCK = 100
LCHARG = False
LORBIT = 11
LPLANE = False
LREAL = True
LSCALU = False
LWAVE = True
MAXMIX = 20
NBLOCK = 1
NELM = 500
NELMIN = 4
NPAR = 4
NSIM = 4
NSW = 1000
POTIM = 2
PREC = Normal
SIGMA = 0.05
SMASS = -1
TEBEG = 100
TEEND = 1500
