Li48 Al16 N32                           
   1.00000000000000     
     9.5206569999999999    0.0000000000000000    0.0000000000000000
     0.0000000000000000    9.5206569999999999    0.0000000000000000
     0.0000000000000000    0.0000000000000000    9.5206569999999999
   Li   Al   N 
    48    16    32
Direct
  0.8775225205959009  0.6374569382011522  0.8837551970004953
  0.6510407496646351  0.3736243221327621  0.3746466137271813
  0.6575643966852359  0.6372172173748455  0.1119807908210970
  0.1254685229174110  0.5971342428961914  0.1376381770753722
  0.3534275334929577  0.6565352306478037  0.3518855239423898
  0.6068136316943475  0.1618796613127959  0.1246716928096250
  0.1487233563865561  0.4174163468116260  0.3663178018476533
  0.3872490448125331  0.3185993061632283  0.0944591334495774
  0.8915800201592279  0.9161439304643306  0.1596226330915388
  0.6518089487393839  0.8421446185882031  0.4032965936419704
  0.8127793789591763  0.0931770160533616  0.3356515914296929
  0.8189947407362892  0.3773902705387991  0.6036955060177341
  0.6457385719263802  0.8876114576459613  0.6154259790324579
  0.8439793085880414  0.1027323522898336  0.0829201741609173
  0.8925731674030574  0.8562430738053852  0.4063416804886371
  0.4053136828718621  0.8796857977336843  0.3515595141871676
  0.1197523227962363  0.8068178644107107  0.1505141687195549
  0.8924926190748068  0.3013645072879872  0.3725816952685571
  0.3830797696224771  0.1051472580167455  0.1459046151452849
  0.6516187592009667  0.1292940360585675  0.8642890079968849
  0.6071486666750756  0.6126626899653503  0.3476369709726758
  0.8851426592602785  0.6753098224302378  0.1461725939312791
  0.6438062169077655  0.4114414012279945  0.1731100328604252
  0.0946332729998661  0.1979002184934169  0.3869732414660896
  0.3291608449223229  0.1122237681801631  0.4046036023054769
  0.1831137009161277  0.9140079549761094  0.8865979578116084
  0.1382277395868487  0.1102885481677693  0.5848038439643675
  0.6245479945496900  0.1126461830977309  0.6368145560837274
  0.9027810737434269  0.1272849562108443  0.8786151280691281
  0.1125043524143903  0.6481337918951813  0.6420113439014369
  0.6321154259012169  0.8976662012643970  0.8767509893370984
  0.9382918059721369  0.8312895063540644  0.6094247473183246
  0.3394371842908236  0.4421929262334321  0.5904439528955113
  0.0908275523967950  0.3300969828863782  0.8958901293401875
  0.3890326581352822  0.6238905095573641  0.8598100099024878
  0.3649812972361350  0.8374923953900498  0.1122748086882785
  0.1430893924329221  0.3333577610244186  0.1128293161534978
  0.3678031814975153  0.6516068524451929  0.6184681812887378
  0.3412816982749386  0.3875766440890735  0.8651833493825487
  0.8506386453396986  0.4070022606798442  0.8484195622648711
  0.5875087911650680  0.3359277331933076  0.6319480282683563
  0.3959724716686076  0.8491391135778544  0.8568777625692880
  0.8990690955018487  0.5999341957203462  0.6715419859518450
  0.1403592008058906  0.6535251285422210  0.4079764049671649
  0.1538378291239920  0.1122618154473589  0.8338625322074142
  0.3813518995148726  0.1884382203718191  0.6244183232952568
  0.1378531400386906  0.8653096520259277  0.6587178547292996
  0.6104936686292260  0.6670866039617143  0.8690256195967265
  0.1103717398667517  0.9129677793457164  0.3904273127334561
  0.8900139456515752  0.3861674472858854  0.1148917709662622
  0.8730801538828139  0.5948748462852732  0.3905812347254058
  0.6372531225980712  0.6177340746792261  0.6224038415647153
  0.8823539880325727  0.1334855764297593  0.6047062297062750
  0.1475245972955458  0.6228291896159154  0.8891543633101805
  0.6143784561361441  0.8678992462190707  0.1024703443064114
  0.8812369284728561  0.8876348346426748  0.8743377224240368
  0.6062405221864464  0.3952766028783681  0.8856589943940135
  0.3649350556943424  0.9001477717808811  0.6245664575456035
  0.4008963493197135  0.1118453443423132  0.8824760531101159
  0.1151323795025876  0.1110532060262281  0.1199762874599468
  0.3896432404129763  0.5926932771630902  0.1084426336826776
  0.5894361432217631  0.1049917398495838  0.3783232239911613
  0.1003810202573540  0.3904202473509429  0.6427513431218618
  0.3972377367466739  0.3806619815715501  0.3729754441320399
  0.0094545816913281  0.7548494520830885  0.7886249653036395
  0.0145080083555029  0.5069772285702112  0.0080425234725611
  0.9877235820330605  0.4946466305473126  0.5088910292756341
  0.5083942333294170  0.4871223646310222  0.4948420688086854
  0.7098104711309074  0.4995187593106104  0.7541168089209532
  0.4999377675397383  0.7500580582762084  0.7092129486612130
  0.7719046474600139  0.7304725881011571  0.5193753583575252
  0.9845745413835647  0.7388921857752995  0.3010764510779967
  0.6897904629344969  0.9989582260194465  0.2344202161389380
  0.2593623736522508  0.7061209878489281  0.0072783853118701
  0.5189349187280349  0.7415104097445023  0.2321385706538355
  0.7616326473276941  0.7682367856227145  0.9873485904324739
  0.2145555808353225  0.7925001911417557  0.5104218278988156
  0.7790341343748297  0.0177131221175864  0.7259256305833330
  0.7804934463526039  0.4965441170696291  0.2480397053547220
  0.4959278031127579  0.4939252175985649  0.9921471687023032
  0.4830019869187623  0.2379039114441385  0.2816621839919276
  0.4648319883199069  0.0049479834670998  0.5011951887917527
  0.5063397286297135  0.9719753411747715  0.9806803506724634
  0.0088813854219379  0.0081794901813248  0.9862778797067072
  0.2313439213813797  0.9872892508710875  0.2651143462374644
  0.0043837713935207  0.2515457352951025  0.2177008375839187
  0.2618174892647614  0.2115913723292119  0.9949313229596042
  0.5109726603497861  0.2370272887939120  0.7793615274936116
  0.2138182850271191  0.5054594415091510  0.7497969875356871
  0.7320262394913633  0.2053998731402041  0.4855510958756122
  0.9878547026693496  0.2579265438543098  0.7242672121436105
  0.2526622032061396  0.3011808076879344  0.5059829646730304
  0.7490467768518876  0.2772367692642091  0.0001821931877959
  0.2794043661757152  0.4929384431080028  0.2599911123733656
  0.2849427909170540  0.9980130798551735  0.7624543746480309
  0.9910772127074696  0.0360814842479774  0.4908042641688590
 
 -0.76273324E-02  0.14978266E-02 -0.22052143E-01
  0.28619604E-01 -0.12554809E-01  0.15025367E-01
  0.28964899E-01  0.87174190E-02 -0.11823137E-01
 -0.15477375E-01 -0.52287443E-03 -0.66664382E-02
  0.11000721E-01 -0.51634834E-02 -0.50804881E-02
 -0.85290339E-02  0.27072730E-02  0.14613669E-01
 -0.37827952E-02  0.13856399E-01  0.19296922E-01
 -0.24741095E-01  0.44175337E-02  0.60381301E-02
  0.10393469E-01 -0.15255054E-01  0.70840221E-02
  0.12998749E-01 -0.95158869E-02 -0.14685985E-01
  0.40697530E-02  0.44476959E-03 -0.36426578E-02
  0.29046562E-01 -0.18657798E-01  0.26190540E-01
  0.60693162E-02 -0.16905085E-01 -0.15963406E-01
 -0.50363702E-02  0.99785299E-02 -0.49708141E-02
 -0.14760340E-01  0.14492670E-01 -0.84162459E-02
  0.63028829E-02 -0.54378500E-02  0.10143387E-01
  0.17036654E-02  0.14924007E-02 -0.18319702E-01
 -0.13996881E-01  0.16797141E-01 -0.38215451E-03
  0.13105061E-01  0.52034036E-02 -0.12051473E-01
 -0.20203215E-01  0.29026027E-02  0.24507345E-01
  0.22373056E-02 -0.17428273E-01  0.11598311E-01
  0.50031936E-02 -0.25326177E-02  0.46957943E-02
 -0.15886713E-01 -0.85189608E-02 -0.98668454E-02
 -0.21247147E-01  0.13665385E-02  0.12000803E-01
  0.17909420E-01  0.32374363E-01 -0.45068898E-02
  0.54553946E-02 -0.31932100E-02  0.66181592E-02
  0.46125926E-02 -0.11925741E-01  0.10341191E-01
 -0.14682420E-01  0.16146772E-02 -0.11244029E-01
  0.12622380E-01  0.88729580E-03 -0.52018191E-02
 -0.26676328E-01  0.15636397E-01  0.31168559E-01
 -0.30874234E-02  0.51674216E-03 -0.72170987E-02
 -0.74598062E-02 -0.12994297E-01  0.99762763E-02
  0.62026080E-02 -0.32764392E-01 -0.59390162E-02
 -0.21871071E-01 -0.22319159E-01 -0.12509546E-01
 -0.41099934E-02 -0.93152396E-02 -0.13906397E-01
  0.15767030E-01 -0.12545165E-01 -0.34028262E-02
 -0.86498293E-02  0.11074640E-01 -0.13033032E-01
 -0.17580126E-01 -0.81891820E-02 -0.60928573E-03
 -0.19042790E-02  0.33248446E-02 -0.35271269E-02
  0.37517586E-01  0.19253928E-01  0.15973382E-01
 -0.11805591E-01  0.10870228E-01 -0.12389400E-01
  0.77339493E-02 -0.59229342E-02  0.83612105E-02
 -0.85628349E-02  0.10108054E-01 -0.72574210E-02
  0.88585153E-02  0.32208887E-01  0.22887943E-01
  0.13865931E-02 -0.30446568E-02  0.11639920E-02
 -0.86822353E-02 -0.65840762E-02  0.19099900E-01
  0.19194217E-01  0.73668411E-02 -0.14988120E-01
  0.78352792E-02 -0.61920712E-02 -0.56738269E-02
 -0.16343095E-03 -0.39288057E-02 -0.27519038E-02
  0.41019097E-02 -0.27527962E-02  0.18209329E-03
 -0.37559512E-02 -0.35076452E-03 -0.92656254E-02
 -0.51499616E-02 -0.49852823E-02 -0.72026696E-02
  0.35874390E-02  0.43815789E-02  0.10756753E-01
  0.13346879E-01  0.76579366E-03 -0.17458311E-02
  0.69600608E-02 -0.47762611E-02 -0.30987038E-02
 -0.12818245E-01  0.28096146E-02  0.44696230E-04
 -0.10347126E-01  0.77080163E-02 -0.12702014E-01
 -0.96089041E-02  0.83300377E-02  0.11246932E-02
 -0.69326396E-02 -0.53496193E-02  0.11985211E-01
  0.12880354E-02 -0.65843389E-02  0.40774139E-02
  0.15197625E-03  0.70423238E-02  0.26602755E-02
 -0.25987039E-02  0.41716334E-02 -0.11361765E-01
  0.32057691E-02 -0.63240968E-02  0.89228976E-02
  0.36355938E-02 -0.33133458E-02 -0.10905486E-01
  0.80267120E-02  0.10398989E-01  0.14386295E-01
 -0.53389565E-02  0.14035797E-01 -0.39401407E-02
 -0.63831859E-02  0.53571994E-02 -0.55330446E-02
  0.51802755E-02 -0.73294280E-02 -0.34240019E-02
 -0.93274320E-02 -0.66742287E-02  0.12369015E-01
  0.82900017E-03  0.49888861E-02 -0.13597905E-01
 -0.94855164E-02 -0.11249640E-01 -0.29420669E-02
  0.12596795E-01 -0.13823981E-02  0.80146753E-02
  0.82174672E-03 -0.37611096E-02 -0.80631363E-02
  0.78993165E-02  0.94573357E-02  0.71852211E-02
 -0.28609492E-02 -0.15149723E-02 -0.18351845E-01
 -0.32634284E-02  0.17370453E-01 -0.36009629E-02
 -0.17685346E-03  0.51337408E-02 -0.41990892E-02
  0.16685218E-02 -0.87291617E-02  0.80586008E-02
 -0.23476421E-02  0.11967896E-01 -0.19730092E-01
  0.43433541E-03 -0.16844994E-02 -0.16936751E-02
 -0.21519731E-01  0.17372243E-01 -0.45268001E-02
 -0.20250783E-02 -0.35114817E-03 -0.21414430E-02
  0.56206839E-02 -0.17489603E-01  0.97959122E-02
  0.11085352E-01  0.15665122E-01  0.23405692E-01
  0.11667234E-01  0.42742024E-02  0.74433556E-02
 -0.61246167E-02  0.58900611E-02  0.83017269E-02
  0.12848872E-01 -0.53275309E-02 -0.78049963E-02
  0.42388204E-02  0.54823100E-02  0.47931136E-02
  0.50990483E-02 -0.31169739E-02  0.97388082E-03
  0.44620520E-02 -0.90857234E-02  0.23894251E-02
  0.88973217E-02 -0.13773405E-01  0.15263531E-01
 -0.28188514E-02 -0.10934856E-01  0.13756333E-01
 -0.19004142E-01 -0.34322653E-02  0.41769981E-02
 -0.69263442E-02  0.53420604E-02 -0.34792606E-02
  0.38678883E-02 -0.29948989E-02 -0.60184868E-02
  0.12315847E-01 -0.86235953E-02 -0.48548300E-02
 
           1
   2.00000000000000     
  0.10000000E+01  0.00000000E+00  0.00000000E+00  0.00000000E+00
  0.87592025E+00  0.63777159E+00  0.87912271E+00
  0.65705286E+00  0.37098694E+00  0.37780299E+00
  0.66364904E+00  0.63904848E+00  0.10949711E+00
  0.12221720E+00  0.59702440E+00  0.13623776E+00
  0.35573845E+00  0.65545054E+00  0.35081827E+00
  0.60502194E+00  0.16244838E+00  0.12774158E+00
  0.14792871E+00  0.42032715E+00  0.37037150E+00
  0.38205169E+00  0.31952730E+00  0.95727561E-01
  0.89376337E+00  0.91293931E+00  0.16111077E+00
  0.65453959E+00  0.84014562E+00  0.40021152E+00
  0.81363431E+00  0.93270449E-01  0.33488638E+00
  0.82509654E+00  0.37347084E+00  0.60919734E+00
  0.64701355E+00  0.88406021E+00  0.61207255E+00
  0.84292132E+00  0.10482854E+00  0.81875958E-01
  0.88947247E+00  0.85928754E+00  0.40457368E+00
  0.40663773E+00  0.87854347E+00  0.35369033E+00
  0.12011021E+00  0.80713137E+00  0.14666576E+00
  0.88955230E+00  0.30489307E+00  0.37250142E+00
  0.38583274E+00  0.10624033E+00  0.14337297E+00
  0.64737468E+00  0.12990378E+00  0.86943725E+00
  0.60761866E+00  0.60900154E+00  0.35007342E+00
  0.88619368E+00  0.67477780E+00  0.14715904E+00
  0.64046890E+00  0.40965183E+00  0.17103731E+00
  0.90169895E-01  0.19818729E+00  0.38949424E+00
  0.33292307E+00  0.11902464E+00  0.40365684E+00
  0.18425971E+00  0.91333716E+00  0.88798823E+00
  0.13919670E+00  0.10778331E+00  0.58697621E+00
  0.62146367E+00  0.11298538E+00  0.63445253E+00
  0.90543265E+00  0.12747135E+00  0.87752238E+00
  0.10690047E+00  0.65141852E+00  0.64855891E+00
  0.63146685E+00  0.89777475E+00  0.87523490E+00
  0.93672473E+00  0.82855980E+00  0.61152046E+00
  0.34074016E+00  0.43531013E+00  0.58919635E+00
  0.86233107E-01  0.32540841E+00  0.89326225E+00
  0.38816927E+00  0.62193366E+00  0.85688870E+00
  0.36829347E+00  0.83485704E+00  0.11155998E+00
  0.14127233E+00  0.33568421E+00  0.11009147E+00
  0.36411013E+00  0.64988655E+00  0.61834019E+00
  0.34088167E+00  0.38827509E+00  0.86444241E+00
  0.85851995E+00  0.41104692E+00  0.85177508E+00
  0.58502880E+00  0.33821124E+00  0.62934539E+00
  0.39759714E+00  0.84789489E+00  0.85863420E+00
  0.89727030E+00  0.60205759E+00  0.67001742E+00
  0.14222011E+00  0.66029123E+00  0.41278446E+00
  0.15412911E+00  0.11162223E+00  0.83410705E+00
  0.37952803E+00  0.18705511E+00  0.62843063E+00
  0.14188526E+00  0.86685720E+00  0.65556931E+00
  0.61213962E+00  0.66578584E+00  0.86783372E+00
  0.11033741E+00  0.91214246E+00  0.38984922E+00
  0.89087563E+00  0.38558917E+00  0.11493002E+00
  0.87229114E+00  0.59480116E+00  0.38863481E+00
  0.63617127E+00  0.61668682E+00  0.62089078E+00
  0.88310760E+00  0.13440601E+00  0.60696590E+00
  0.15032837E+00  0.62299006E+00  0.88878762E+00
  0.61584055E+00  0.86689590E+00  0.10181940E+00
  0.87854421E+00  0.88822505E+00  0.87434711E+00
  0.60406691E+00  0.39689582E+00  0.88299069E+00
  0.36291652E+00  0.90189766E+00  0.62480272E+00
  0.39944001E+00  0.11072155E+00  0.88499378E+00
  0.11540296E+00  0.10967004E+00  0.12083283E+00
  0.38967517E+00  0.59417265E+00  0.10900148E+00
  0.58889023E+00  0.10586807E+00  0.37593646E+00
  0.10105445E+00  0.38909175E+00  0.64462577E+00
  0.39800146E+00  0.37996595E+00  0.37068453E+00
  0.11140749E-01  0.75703396E+00  0.79164709E+00
  0.13386456E-01  0.50992572E+00  0.72148199E-02
  0.98638267E+00  0.49577201E+00  0.50772871E+00
  0.50948245E+00  0.48558268E+00  0.49412279E+00
  0.70785106E+00  0.49811671E+00  0.75671516E+00
  0.50011192E+00  0.75110607E+00  0.70635644E+00
  0.76991203E+00  0.72810938E+00  0.51875732E+00
  0.98722074E+00  0.73860179E+00  0.30276009E+00
  0.68996309E+00  0.99816813E+00  0.23272640E+00
  0.26102178E+00  0.70810769E+00  0.87877814E-02
  0.51833392E+00  0.74119216E+00  0.22828341E+00
  0.76094710E+00  0.77188579E+00  0.98659214E+00
  0.21451843E+00  0.79357863E+00  0.50953973E+00
  0.77938464E+00  0.15879391E-01  0.72761850E+00
  0.78000028E+00  0.49905821E+00  0.24389501E+00
  0.49601904E+00  0.49357136E+00  0.99179138E+00
  0.47848135E+00  0.24155329E+00  0.28071124E+00
  0.46440658E+00  0.48742179E-02  0.50074534E+00
  0.50752046E+00  0.96830131E+00  0.98273817E+00
  0.11210080E-01  0.11470255E-01  0.99119470E+00
  0.23379485E+00  0.98818713E+00  0.26667797E+00
  0.30971760E-02  0.25278306E+00  0.21944478E+00
  0.26451665E+00  0.21047222E+00  0.99329173E+00
  0.51186311E+00  0.23817896E+00  0.78036841E+00
  0.21488944E+00  0.50480466E+00  0.75000157E+00
  0.73296358E+00  0.20349124E+00  0.48605304E+00
  0.98972376E+00  0.25503317E+00  0.72747361E+00
  0.25207005E+00  0.29888373E+00  0.50887275E+00
  0.74505459E+00  0.27651575E+00  0.10596532E-02
  0.27794935E+00  0.49406065E+00  0.25926023E+00
  0.28575532E+00  0.99738394E+00  0.76119007E+00
  0.99366440E+00  0.34269930E-01  0.48978441E+00
 -0.15150191E-02  0.45041055E-03 -0.49880169E-02
  0.59331495E-02 -0.24742516E-02  0.27879297E-02
  0.59911641E-02  0.21811571E-02 -0.24561540E-02
 -0.33256215E-02  0.17716621E-03 -0.17435161E-02
  0.20546220E-02 -0.10443589E-02 -0.12306843E-02
 -0.19750041E-02  0.60896289E-03  0.31603465E-02
 -0.39258682E-03  0.30108502E-02  0.38879487E-02
 -0.53943196E-02  0.56889746E-03  0.99089241E-03
  0.22451313E-02 -0.29020958E-02  0.14632171E-02
  0.28956098E-02 -0.20245184E-02 -0.26506541E-02
  0.17492949E-03 -0.14866030E-04 -0.94516385E-03
  0.60039544E-02 -0.40077213E-02  0.55034082E-02
  0.11849920E-02 -0.34489502E-02 -0.35773920E-02
 -0.87801452E-03  0.16553580E-02 -0.11826874E-02
 -0.23468669E-02  0.28828058E-02 -0.18875182E-02
  0.14706783E-02 -0.12787730E-02  0.21619556E-02
  0.27901934E-03 -0.24072750E-04 -0.37321329E-02
 -0.28288442E-02  0.31780585E-02 -0.14855727E-03
  0.29157782E-02  0.13869225E-02 -0.27314297E-02
 -0.45458306E-02  0.53660493E-03  0.50000809E-02
  0.42215399E-03 -0.35308296E-02  0.22807768E-02
  0.10943903E-02 -0.26791880E-03  0.12436563E-02
 -0.27722070E-02 -0.13339958E-02 -0.14130340E-02
 -0.45766602E-02  0.44988647E-03  0.26030783E-02
  0.37896826E-02  0.66182265E-02 -0.71536447E-03
  0.17402915E-02 -0.13831336E-03  0.78957471E-03
  0.67776153E-03 -0.27876605E-02  0.17953438E-02
 -0.29583007E-02  0.36483464E-03 -0.23909618E-02
  0.27712761E-02 -0.41365250E-03 -0.65184200E-03
 -0.56771534E-02  0.33422771E-02  0.67307296E-02
 -0.91285944E-03  0.23337726E-03 -0.68017890E-03
 -0.11154291E-02 -0.28765763E-02  0.19384357E-02
  0.11916952E-02 -0.68901213E-02 -0.17113778E-02
 -0.45664507E-02 -0.48630851E-02 -0.25680974E-02
 -0.92771034E-03 -0.17999963E-02 -0.27078840E-02
  0.34091802E-02 -0.30243210E-02 -0.75030281E-03
 -0.21345506E-02  0.15361343E-02 -0.28371422E-02
 -0.35184141E-02 -0.15424089E-02  0.97134274E-04
 -0.39628615E-03  0.90445052E-03 -0.68241802E-03
  0.75639061E-02  0.44346009E-02  0.32150105E-02
 -0.25156034E-02  0.20111291E-02 -0.23692429E-02
  0.15107294E-02 -0.12390599E-02  0.15291065E-02
 -0.15775445E-02  0.20614598E-02 -0.12959852E-02
  0.22281196E-02  0.70525453E-02  0.49667020E-02
  0.69877927E-03 -0.99459999E-03  0.12589110E-03
 -0.18111788E-02 -0.12916021E-02  0.39660066E-02
  0.42969757E-02  0.12098701E-02 -0.36720406E-02
  0.14410300E-02 -0.11453154E-02 -0.12220643E-02
 -0.10738361E-03 -0.76920806E-03 -0.58179271E-03
  0.87268154E-03 -0.57723340E-03  0.66586963E-04
 -0.84021927E-03 -0.16369423E-03 -0.20015669E-02
 -0.95864712E-03 -0.10706589E-02 -0.13969396E-02
  0.87516938E-03  0.95341428E-03  0.21486064E-02
  0.31554124E-02  0.24924147E-03 -0.31614324E-03
  0.14036302E-02 -0.11089804E-02 -0.84355082E-03
 -0.28104645E-02  0.61122008E-03  0.55257771E-04
 -0.23108921E-02  0.18558484E-02 -0.26174889E-02
 -0.21725002E-02  0.18199701E-02  0.39575733E-03
 -0.14197487E-02 -0.11028876E-02  0.25170275E-02
  0.22676479E-03 -0.12464577E-02  0.85177530E-03
  0.93765306E-04  0.14707217E-02  0.37335636E-03
 -0.48518367E-03  0.84981777E-03 -0.24175073E-02
  0.65486076E-03 -0.12727851E-02  0.20801919E-02
  0.86996839E-03 -0.68366978E-03 -0.23184105E-02
  0.15791347E-02  0.22113634E-02  0.30759410E-02
 -0.10185026E-02  0.30519406E-02 -0.71156056E-03
 -0.14418778E-02  0.12029752E-02 -0.12659803E-02
  0.94881775E-03 -0.17691302E-02 -0.76212534E-03
 -0.20316840E-02 -0.14476150E-02  0.26041005E-02
  0.15773471E-03  0.95431988E-03 -0.29351267E-02
 -0.18655754E-02 -0.21437268E-02 -0.59056908E-03
  0.23523887E-02 -0.47734678E-03  0.18818781E-02
  0.99967608E-04 -0.72044087E-03 -0.17123384E-02
  0.14126020E-02  0.18162655E-02  0.13638352E-02
 -0.40244297E-03 -0.26382023E-03 -0.35694303E-02
 -0.51042886E-03  0.34058501E-02 -0.87488326E-03
 -0.40334498E-03  0.10840247E-02 -0.97145195E-03
  0.28688517E-03 -0.15621412E-02  0.12916024E-02
 -0.61881212E-03  0.23903093E-02 -0.42639442E-02
  0.18407778E-03 -0.49162141E-03 -0.45049108E-03
 -0.46369868E-02  0.36449053E-02 -0.76015042E-03
 -0.76997214E-03 -0.12348844E-03 -0.41671757E-03
  0.14111417E-02 -0.39023277E-02  0.18937427E-02
  0.23945559E-02  0.34130369E-02  0.47802990E-02
  0.25581332E-02  0.76094710E-03  0.19152399E-02
 -0.12540782E-02  0.13731149E-02  0.18819843E-02
  0.28234712E-02 -0.99775247E-03 -0.16627373E-02
  0.97945350E-03  0.10127379E-02  0.87069476E-03
  0.91064366E-03 -0.74458327E-03  0.17667363E-03
  0.90621541E-03 -0.20097976E-02  0.47907878E-03
  0.18600687E-02 -0.28211186E-02  0.32021344E-02
 -0.41924265E-03 -0.21157271E-02  0.29331569E-02
 -0.39888306E-02 -0.89149442E-03  0.85341995E-03
 -0.16438591E-02  0.91205301E-03 -0.38397969E-03
  0.77111913E-03 -0.71321703E-03 -0.10890727E-02
  0.23948011E-02 -0.14267185E-02 -0.71522904E-03
  0.00000000E+00  0.00000000E+00  0.00000000E+00
  0.00000000E+00  0.00000000E+00  0.00000000E+00
  0.00000000E+00  0.00000000E+00  0.00000000E+00
  0.00000000E+00  0.00000000E+00  0.00000000E+00
  0.00000000E+00  0.00000000E+00  0.00000000E+00
  0.00000000E+00  0.00000000E+00  0.00000000E+00
  0.00000000E+00  0.00000000E+00  0.00000000E+00
  0.00000000E+00  0.00000000E+00  0.00000000E+00
  0.00000000E+00  0.00000000E+00  0.00000000E+00
  0.00000000E+00  0.00000000E+00  0.00000000E+00
  0.00000000E+00  0.00000000E+00  0.00000000E+00
  0.00000000E+00  0.00000000E+00  0.00000000E+00
  0.00000000E+00  0.00000000E+00  0.00000000E+00
  0.00000000E+00  0.00000000E+00  0.00000000E+00
  0.00000000E+00  0.00000000E+00  0.00000000E+00
  0.00000000E+00  0.00000000E+00  0.00000000E+00
  0.00000000E+00  0.00000000E+00  0.00000000E+00
  0.00000000E+00  0.00000000E+00  0.00000000E+00
  0.00000000E+00  0.00000000E+00  0.00000000E+00
  0.00000000E+00  0.00000000E+00  0.00000000E+00
  0.00000000E+00  0.00000000E+00  0.00000000E+00
  0.00000000E+00  0.00000000E+00  0.00000000E+00
  0.00000000E+00  0.00000000E+00  0.00000000E+00
  0.00000000E+00  0.00000000E+00  0.00000000E+00
  0.00000000E+00  0.00000000E+00  0.00000000E+00
  0.00000000E+00  0.00000000E+00  0.00000000E+00
  0.00000000E+00  0.00000000E+00  0.00000000E+00
  0.00000000E+00  0.00000000E+00  0.00000000E+00
  0.00000000E+00  0.00000000E+00  0.00000000E+00
  0.00000000E+00  0.00000000E+00  0.00000000E+00
  0.00000000E+00  0.00000000E+00  0.00000000E+00
  0.00000000E+00  0.00000000E+00  0.00000000E+00
  0.00000000E+00  0.00000000E+00  0.00000000E+00
  0.00000000E+00  0.00000000E+00  0.00000000E+00
  0.00000000E+00  0.00000000E+00  0.00000000E+00
  0.00000000E+00  0.00000000E+00  0.00000000E+00
  0.00000000E+00  0.00000000E+00  0.00000000E+00
  0.00000000E+00  0.00000000E+00  0.00000000E+00
  0.00000000E+00  0.00000000E+00  0.00000000E+00
  0.00000000E+00  0.00000000E+00  0.00000000E+00
  0.00000000E+00  0.00000000E+00  0.00000000E+00
  0.00000000E+00  0.00000000E+00  0.00000000E+00
  0.00000000E+00  0.00000000E+00  0.00000000E+00
  0.00000000E+00  0.00000000E+00  0.00000000E+00
  0.00000000E+00  0.00000000E+00  0.00000000E+00
  0.00000000E+00  0.00000000E+00  0.00000000E+00
  0.00000000E+00  0.00000000E+00  0.00000000E+00
  0.00000000E+00  0.00000000E+00  0.00000000E+00
  0.00000000E+00  0.00000000E+00  0.00000000E+00
  0.00000000E+00  0.00000000E+00  0.00000000E+00
  0.00000000E+00  0.00000000E+00  0.00000000E+00
  0.00000000E+00  0.00000000E+00  0.00000000E+00
  0.00000000E+00  0.00000000E+00  0.00000000E+00
  0.00000000E+00  0.00000000E+00  0.00000000E+00
  0.00000000E+00  0.00000000E+00  0.00000000E+00
  0.00000000E+00  0.00000000E+00  0.00000000E+00
  0.00000000E+00  0.00000000E+00  0.00000000E+00
  0.00000000E+00  0.00000000E+00  0.00000000E+00
  0.00000000E+00  0.00000000E+00  0.00000000E+00
  0.00000000E+00  0.00000000E+00  0.00000000E+00
  0.00000000E+00  0.00000000E+00  0.00000000E+00
  0.00000000E+00  0.00000000E+00  0.00000000E+00
  0.00000000E+00  0.00000000E+00  0.00000000E+00
  0.00000000E+00  0.00000000E+00  0.00000000E+00
  0.00000000E+00  0.00000000E+00  0.00000000E+00
  0.00000000E+00  0.00000000E+00  0.00000000E+00
  0.00000000E+00  0.00000000E+00  0.00000000E+00
  0.00000000E+00  0.00000000E+00  0.00000000E+00
  0.00000000E+00  0.00000000E+00  0.00000000E+00
  0.00000000E+00  0.00000000E+00  0.00000000E+00
  0.00000000E+00  0.00000000E+00  0.00000000E+00
  0.00000000E+00  0.00000000E+00  0.00000000E+00
  0.00000000E+00  0.00000000E+00  0.00000000E+00
  0.00000000E+00  0.00000000E+00  0.00000000E+00
  0.00000000E+00  0.00000000E+00  0.00000000E+00
  0.00000000E+00  0.00000000E+00  0.00000000E+00
  0.00000000E+00  0.00000000E+00  0.00000000E+00
  0.00000000E+00  0.00000000E+00  0.00000000E+00
  0.00000000E+00  0.00000000E+00  0.00000000E+00
  0.00000000E+00  0.00000000E+00  0.00000000E+00
  0.00000000E+00  0.00000000E+00  0.00000000E+00
  0.00000000E+00  0.00000000E+00  0.00000000E+00
  0.00000000E+00  0.00000000E+00  0.00000000E+00
  0.00000000E+00  0.00000000E+00  0.00000000E+00
  0.00000000E+00  0.00000000E+00  0.00000000E+00
  0.00000000E+00  0.00000000E+00  0.00000000E+00
  0.00000000E+00  0.00000000E+00  0.00000000E+00
  0.00000000E+00  0.00000000E+00  0.00000000E+00
  0.00000000E+00  0.00000000E+00  0.00000000E+00
  0.00000000E+00  0.00000000E+00  0.00000000E+00
  0.00000000E+00  0.00000000E+00  0.00000000E+00
  0.00000000E+00  0.00000000E+00  0.00000000E+00
  0.00000000E+00  0.00000000E+00  0.00000000E+00
  0.00000000E+00  0.00000000E+00  0.00000000E+00
  0.00000000E+00  0.00000000E+00  0.00000000E+00
  0.00000000E+00  0.00000000E+00  0.00000000E+00
