Li56 La24 Zr16 O96                      
   1.00000000000000     
    12.9800000000000004    0.0000000000000000    0.0000000000000000
     0.0000000000000000   12.9800000000000004    0.0000000000000000
     0.0000000000000000    0.0000000000000000   12.9800000000000004
   Li   La   Zr   O 
    56    24    16    96
Direct
  0.4996304126010423  0.2487898551145221  0.1251003088781352
  0.8798998092611278 -0.0151058483916143  0.2411136942898061
  0.0003976298011943  0.7508372213250649  0.6236219724574469
  0.2468262410072004  0.8729083456355157  0.0021087775173436
  0.1258401773679848  0.4995893385206245  0.2496807726778662
  0.7361907024508862  0.3713889594665402  0.5075966453561394
  0.3793594885119020  0.4858402500126673  0.7421970970159812
  0.4999651599437486  0.2504521744060478  0.6249896021881770
  0.0004052888312137  0.2487665941311939  0.8757075531424879
  0.6201606263330527  0.0142967259233065  0.7422056346331993
  0.7523308553674608  0.6249333177878039  0.0004568321195325
  0.4999396405523840  0.7504593240718783  0.3749528155430312
  0.2681603599102639  0.1333083198106050  0.5102316414477062
  0.0652878137280561  0.6558428898323100  0.1774965194375433
  0.3236993042104501  0.9365838082598654  0.1590987706272229
  0.3438807319526083  0.6752073860644259  0.4361842078781237
  0.9260646932872426  0.4067780280490211  0.8147538590201275
  0.9137434630945998  0.7010226460944715  0.0804325024405708
  0.3149255864307686  0.4291225171674590  0.9077517187008782
  0.0754962970860177  0.0910786806825876  0.8104015419842135
  0.4350258052338071  0.6525740408440408  0.8230431613574775
  0.5741182766207246  0.5931232716681670  0.3163952495399042
  0.8224266307104250  0.5625564809187938  0.8401030098047478
  0.8247300451401168  0.4363802133501344  0.6578602793001765
  0.8130390980630604  0.0755609247399521  0.0932225624673070
  0.4090966625524655  0.8137642625021652  0.9253996190275670
  0.8401989773850302  0.1755202911435074  0.9341651162087659
  0.1758227767957050  0.0680529555408018  0.6456233115341903
  0.6867122271091447  0.9250821394164115  0.5921069544370382
  0.0637130446947179  0.3403762117036414  0.3250173010059346
  0.1575133572899585  0.6758295826176358  0.5628691294145611
  0.9035201640429813  0.3143670382559232  0.4264022548019154
  0.0766126692241973  0.8157415331658054  0.0834410805131896
  0.1791083459900316  0.9375702424023801  0.8399066411728924
  0.9256291012507019  0.5927725703811874  0.6857842851075787
  0.6758624525957504  0.5636988538073802  0.1597095178256700
  0.1867343312974712  0.5734531661010491  0.4092433115361728
  0.3144039399363868  0.5751518596168430  0.5925207757067004
  0.6782286912244071  0.4357722074183831  0.3414662122355125
  0.6570863757674296  0.1767523274068451  0.0612620602678223
  0.6580937110252343  0.8241340882920553  0.4344198252123332
  0.6847662773120257  0.0714224011448232  0.9080022059751101
  0.8426822270095283  0.8244650482627638  0.5626544335091880
  0.5911741785402471  0.6867044891621059  0.9249107444392821
  0.8116508430409389  0.9309779795079807  0.4090920277941780
  0.1866651661923685  0.4260970825274732  0.0912261923199445
  0.5745383459004840  0.4067885088011696  0.1877621303352225
  0.3178618919858338  0.0671881208841009  0.3528571517996608
  0.1586020835460500  0.3257833907442463  0.9344270173217049
  0.4246532153068605  0.9105973539831483  0.3163046954887935
  0.0962501787536309  0.1854378325089326  0.4280659515419400
  0.3427674338008634  0.3238867755525837  0.0612816103096116
  0.4242672792922985  0.0907676994478602  0.1927196900506158
  0.9338913252730324  0.1535272236961139  0.3238487723153384
  0.0751611641521618  0.9095043359559374  0.6869977267815244
  0.5649386419804308  0.8481913112227613  0.8231859186424666
  0.8808602624067158  0.4999193455460171  0.2503974458899053
 -0.0006544578079511  0.2511960936220411  0.6326705550922890
 -0.0002304041468868  0.7507277086535863  0.8678393227801986
  0.5012596079717884  0.7501795408463477  0.1325211933697436
  0.8683493878316855  0.0002670428054457  0.7498486541156104
  0.7448271919775613  0.1342793203051535  0.5030396623298515
  0.1315152274546077  0.5000913647141931  0.7498707097176026
  0.7501039420475315  0.6187989558278125  0.4991853509576362
  0.2504139263912430  0.6321833310472972  0.0000656696112091
  0.2497041791943541  0.8801713380860143  0.5002446307841495
  0.7509717225206862  0.8691094861713990  0.0009961931626824
 -0.0018269604996865  0.7535435538124642  0.3751176751973969
  0.6309826526755898  0.0008868793981060  0.2516975854597152
  0.5001945335541401  0.7500101224393411  0.6174378429859843
  0.0002380261797297  0.2495024904417812  0.1182665802314921
  0.7490615326626456  0.3810782872758626 -0.0017112956183963
  0.4997388044687979  0.2498111752305759  0.8707639518554237
  0.6161902411137539  0.4945537166994813  0.7471160319372909
  0.2502208741686021  0.1189905490773494 -0.0020565066444422
  0.3694820408478124  0.4983522652357296  0.2517350876032797
  0.3822931062377763  0.0061411286858595  0.7465935124519016
  0.1176776803055585 -0.0009858679854636  0.2492405834651247
  0.5005038101306132  0.2504220213369045  0.3791843413319705
  0.2549852457208758  0.3683851606485575  0.5028603362751385
  0.2531026051703648  0.7513832740181329  0.7483224338265994
  0.2500636952889930  0.7507230497051989  0.2526277271565421
  0.7449170238755196  0.2503178551039278  0.7492969241157035
  0.2491022440280447  0.2483164994051889  0.2474822855315350
 -0.0013059493256367  0.0034447491468459  0.5020945561672242
  0.7471157609812670  0.7484881681498617  0.7484701381769705
  0.4994831094825620  0.5010420417930155  0.0024637305332584
  0.5006550369738711  0.0050519837071493  0.5004999822296522
  0.0015325220933999  0.4985284156942221  0.5006690858409225
  0.7515872002189284  0.2499462861485322  0.2476901423271231
  0.2543585215862201  0.2500616029512385  0.7494869994285671
 -0.0026578998602648 -0.0026680095621537 -0.0019460356490570
  0.7552866904220150  0.7500526746161084  0.2497512274025465
  0.4999598036304012 -0.0008013735968394  0.0029444899345147
  0.5001607788669709  0.4953122346274991  0.5009435499098411
  0.0001254366517617  0.5032574318834653 -0.0010363612962321
  0.0992464756197483  0.7988475571548125  0.2237575572692241
  0.6946038354638769  0.7118138445042510  0.1023730155189737
  0.3027521392488434  0.7203851312546311  0.5948703415433926
  0.2129768811279041  0.3970943941340563  0.3051176440171337
  0.3451175557709638  0.4709053184220821  0.0535801902063523
  0.6980591916143624  0.7793491219883321  0.5941257608451372
  0.6476070794419563  0.5373006894916619  0.9436378008499311
  0.4471108266041189  0.6548091650155424  0.9715394584102223
  0.9655124663271800  0.9464176491476636  0.3533886022049267
  0.0580781635572279  0.1464945546606804  0.9629691754036274
  0.6035112744962396  0.8039735268234637  0.2873425215364083
  0.5318819993570395  0.4473851708942516  0.3457939465224647
  0.9042983702430250  0.6875784514781290  0.2243593455941301
  0.5952753051751525  0.6986330825915417  0.7791548779545446
  0.0572682106626879  0.8535211836497483  0.5367189093606463
  0.4414721015288839  0.3485544599538267  0.5227672212243006
  0.9440505736045184  0.8453753558549768  0.0217081945955521
  0.5526020541326117  0.8452233958452188  0.9720542960464352
  0.7207918359844774  0.4045921277294344  0.1964900355589896
  0.5558864508802202  0.6482420265872741  0.4623068998020039
  0.1542964762440468  0.4724097931309919  0.9478428292922094
  0.5367986673115024  0.9404995649846440  0.6468134761242704
  0.2875430655552340  0.6013810636945579  0.8068091674291310
  0.4619586204536436  0.4463171398260862  0.8553087512611546
  0.8516322906355214  0.5349908767987692  0.0570714589123665
  0.7802529067578486  0.5958902288574559  0.6980861001033348
  0.2784097524000919  0.9046076964273710  0.3034997262072717
  0.4406148582470600  0.1471904830684739  0.0373419762591868
  0.6033361566052521  0.1921767348731634  0.2123431367682790
  0.2758161619749344  0.4002965142639339  0.6912400337971659
  0.6545575324129876  0.9694831544054401  0.4468028670506017
  0.8050509827607490  0.7835062054416185  0.4025149647026940
  0.9054083434795328  0.3016332993963331  0.2782273473356093
  0.2208662809737601  0.9040162959956956  0.6971132195581170
  0.7881888182736678  0.1006543513045354  0.3042403429942409
  0.6968715345972814  0.2880215934586024  0.3946235134516133
  0.0293124944033198  0.0536858201852714  0.6555211724077233
  0.0957440582834002  0.1961300356651236  0.2790504652848990
  0.8448253278933329  0.0300316358973597  0.9475367253817653
  0.5580162740898337  0.3525910399250827  0.0376903435783314
  0.4668896367072190  0.0535236862492336  0.3463770092368135
  0.4046324232302351  0.8012570419163937  0.7796886211593065
  0.0384036672844606  0.5561605407589754  0.3523278024400103
  0.5978921527820782  0.3086893419843128  0.7279411655907221
  0.1542065054556636  0.5305167423370077  0.5517908157634649
  0.0515127324151440  0.3459809580840875  0.4704346070037430
  0.3457586169182348  0.5301839727104930  0.4466888956534791
  0.8095216514483065  0.2883892052291127  0.6035582892861032
  0.3047462529091995  0.2133037078718749  0.3950339725575076
  0.9630575963303897  0.0600172881069723  0.1459434667516699
  0.1019204450385834  0.3068468744328425  0.7890946716895471
  0.0374783095690758  0.4436337935402896  0.1469902287392740
  0.3990179998579751  0.6909912795708157  0.2872176013009318
  0.6501924401223895  0.4744109878838902  0.5592716543438163
  0.1936999861816220  0.7864157946426350  0.8966818848961896
  0.1965556519730119  0.2795299822540675  0.0935587022397750
  0.6969285472209892  0.2179572605526608  0.9040662027498952
  0.2204925485736367  0.0958440696046172  0.8025222223604142
  0.5367647041683558  0.0535361868160327  0.8552273858260051
  0.0321734306930067  0.9477148078042911  0.8446737061036967
  0.7764036854340004  0.8992440207295862  0.1896096658291518
  0.4619482481182017  0.5597893614675591  0.6468035783455214
  0.2140744636703429  0.6019110513044402  0.1919459957115261
  0.6535458657913648  0.0306566625356329  0.0525322071835318
  0.8058958636503759  0.7126594622936467  0.8964294918828168
  0.9472637525386791  0.1551875465439415  0.4709275548770196
  0.5590925663001084  0.1520872270539346  0.5223174327072486
  0.8513455352921100  0.4627839536797761  0.4432881595565160
  0.7202631115009047  0.5959942897781481  0.3034101211639444
  0.8456962586449901  0.9700800153113073  0.5522558695652858
  0.3025047184043883  0.2822443811311384  0.9044202383712595
  0.1499314061864345  0.0397464648400650  0.4479662778439362
  0.9425952593301218  0.6481996459298963  0.5359386753795156
  0.1028741940893928  0.6929364066516416  0.7119529563963806
  0.3097388841103068  0.7869360455367341  0.1035799877087347
  0.1449788870362837  0.9604578737909018  0.0601273762750646
  0.3499433982485374  0.0272956612670530  0.5569262232557521
  0.8976638751029445  0.8069765281548543  0.7129451532356733
  0.2778592847730960  0.0942914602968794  0.1967584780327361
  0.5298760817451195  0.5530352069792868  0.1560376303285836
  0.9438877207710300  0.3531163651064082  0.9630964944751302
  0.4013959772292005  0.1915427762590909  0.7268568059031797
  0.8974052273279066  0.1937890908415876  0.7887109094219896
  0.8030080417957206  0.2212694859734881  0.0931873028969219
  0.0522185927025417  0.6563911495752141  0.0311192505805862
  0.3507840296349704  0.9624904899171580  0.9446511360033073
  0.4699611908549000  0.9467909051071737  0.1571595589666962
  0.4433764237975193  0.8525290704051375  0.4613945320809458
  0.1897517349949610  0.2137223875470013  0.6031601106069320
  0.7237797572648089  0.1002403274138786  0.6905756263993289
  0.3970575592164486  0.3075868372125627  0.2117464443742338
  0.7806050237940093  0.4043367247678309  0.8034602652182470
  0.1990511635931384  0.7187336358794082  0.4048351061747569
  0.7123482920418296  0.8989309130233027  0.8059612966328626
  0.9693431524579625  0.5537977672458636  0.8461125088303016
  0.9707821082240640  0.4482593089431187  0.6550108752916093
 
  0.00000000E+00  0.00000000E+00  0.00000000E+00
  0.00000000E+00  0.00000000E+00  0.00000000E+00
  0.00000000E+00  0.00000000E+00  0.00000000E+00
  0.00000000E+00  0.00000000E+00  0.00000000E+00
  0.00000000E+00  0.00000000E+00  0.00000000E+00
  0.00000000E+00  0.00000000E+00  0.00000000E+00
  0.00000000E+00  0.00000000E+00  0.00000000E+00
  0.00000000E+00  0.00000000E+00  0.00000000E+00
  0.00000000E+00  0.00000000E+00  0.00000000E+00
  0.00000000E+00  0.00000000E+00  0.00000000E+00
  0.00000000E+00  0.00000000E+00  0.00000000E+00
  0.00000000E+00  0.00000000E+00  0.00000000E+00
  0.00000000E+00  0.00000000E+00  0.00000000E+00
  0.00000000E+00  0.00000000E+00  0.00000000E+00
  0.00000000E+00  0.00000000E+00  0.00000000E+00
  0.00000000E+00  0.00000000E+00  0.00000000E+00
  0.00000000E+00  0.00000000E+00  0.00000000E+00
  0.00000000E+00  0.00000000E+00  0.00000000E+00
  0.00000000E+00  0.00000000E+00  0.00000000E+00
  0.00000000E+00  0.00000000E+00  0.00000000E+00
  0.00000000E+00  0.00000000E+00  0.00000000E+00
  0.00000000E+00  0.00000000E+00  0.00000000E+00
  0.00000000E+00  0.00000000E+00  0.00000000E+00
  0.00000000E+00  0.00000000E+00  0.00000000E+00
  0.00000000E+00  0.00000000E+00  0.00000000E+00
  0.00000000E+00  0.00000000E+00  0.00000000E+00
  0.00000000E+00  0.00000000E+00  0.00000000E+00
  0.00000000E+00  0.00000000E+00  0.00000000E+00
  0.00000000E+00  0.00000000E+00  0.00000000E+00
  0.00000000E+00  0.00000000E+00  0.00000000E+00
  0.00000000E+00  0.00000000E+00  0.00000000E+00
  0.00000000E+00  0.00000000E+00  0.00000000E+00
  0.00000000E+00  0.00000000E+00  0.00000000E+00
  0.00000000E+00  0.00000000E+00  0.00000000E+00
  0.00000000E+00  0.00000000E+00  0.00000000E+00
  0.00000000E+00  0.00000000E+00  0.00000000E+00
  0.00000000E+00  0.00000000E+00  0.00000000E+00
  0.00000000E+00  0.00000000E+00  0.00000000E+00
  0.00000000E+00  0.00000000E+00  0.00000000E+00
  0.00000000E+00  0.00000000E+00  0.00000000E+00
  0.00000000E+00  0.00000000E+00  0.00000000E+00
  0.00000000E+00  0.00000000E+00  0.00000000E+00
  0.00000000E+00  0.00000000E+00  0.00000000E+00
  0.00000000E+00  0.00000000E+00  0.00000000E+00
  0.00000000E+00  0.00000000E+00  0.00000000E+00
  0.00000000E+00  0.00000000E+00  0.00000000E+00
  0.00000000E+00  0.00000000E+00  0.00000000E+00
  0.00000000E+00  0.00000000E+00  0.00000000E+00
  0.00000000E+00  0.00000000E+00  0.00000000E+00
  0.00000000E+00  0.00000000E+00  0.00000000E+00
  0.00000000E+00  0.00000000E+00  0.00000000E+00
  0.00000000E+00  0.00000000E+00  0.00000000E+00
  0.00000000E+00  0.00000000E+00  0.00000000E+00
  0.00000000E+00  0.00000000E+00  0.00000000E+00
  0.00000000E+00  0.00000000E+00  0.00000000E+00
  0.00000000E+00  0.00000000E+00  0.00000000E+00
  0.00000000E+00  0.00000000E+00  0.00000000E+00
  0.00000000E+00  0.00000000E+00  0.00000000E+00
  0.00000000E+00  0.00000000E+00  0.00000000E+00
  0.00000000E+00  0.00000000E+00  0.00000000E+00
  0.00000000E+00  0.00000000E+00  0.00000000E+00
  0.00000000E+00  0.00000000E+00  0.00000000E+00
  0.00000000E+00  0.00000000E+00  0.00000000E+00
  0.00000000E+00  0.00000000E+00  0.00000000E+00
  0.00000000E+00  0.00000000E+00  0.00000000E+00
  0.00000000E+00  0.00000000E+00  0.00000000E+00
  0.00000000E+00  0.00000000E+00  0.00000000E+00
  0.00000000E+00  0.00000000E+00  0.00000000E+00
  0.00000000E+00  0.00000000E+00  0.00000000E+00
  0.00000000E+00  0.00000000E+00  0.00000000E+00
  0.00000000E+00  0.00000000E+00  0.00000000E+00
  0.00000000E+00  0.00000000E+00  0.00000000E+00
  0.00000000E+00  0.00000000E+00  0.00000000E+00
  0.00000000E+00  0.00000000E+00  0.00000000E+00
  0.00000000E+00  0.00000000E+00  0.00000000E+00
  0.00000000E+00  0.00000000E+00  0.00000000E+00
  0.00000000E+00  0.00000000E+00  0.00000000E+00
  0.00000000E+00  0.00000000E+00  0.00000000E+00
  0.00000000E+00  0.00000000E+00  0.00000000E+00
  0.00000000E+00  0.00000000E+00  0.00000000E+00
  0.00000000E+00  0.00000000E+00  0.00000000E+00
  0.00000000E+00  0.00000000E+00  0.00000000E+00
  0.00000000E+00  0.00000000E+00  0.00000000E+00
  0.00000000E+00  0.00000000E+00  0.00000000E+00
  0.00000000E+00  0.00000000E+00  0.00000000E+00
  0.00000000E+00  0.00000000E+00  0.00000000E+00
  0.00000000E+00  0.00000000E+00  0.00000000E+00
  0.00000000E+00  0.00000000E+00  0.00000000E+00
  0.00000000E+00  0.00000000E+00  0.00000000E+00
  0.00000000E+00  0.00000000E+00  0.00000000E+00
  0.00000000E+00  0.00000000E+00  0.00000000E+00
  0.00000000E+00  0.00000000E+00  0.00000000E+00
  0.00000000E+00  0.00000000E+00  0.00000000E+00
  0.00000000E+00  0.00000000E+00  0.00000000E+00
  0.00000000E+00  0.00000000E+00  0.00000000E+00
  0.00000000E+00  0.00000000E+00  0.00000000E+00
  0.00000000E+00  0.00000000E+00  0.00000000E+00
  0.00000000E+00  0.00000000E+00  0.00000000E+00
  0.00000000E+00  0.00000000E+00  0.00000000E+00
  0.00000000E+00  0.00000000E+00  0.00000000E+00
  0.00000000E+00  0.00000000E+00  0.00000000E+00
  0.00000000E+00  0.00000000E+00  0.00000000E+00
  0.00000000E+00  0.00000000E+00  0.00000000E+00
  0.00000000E+00  0.00000000E+00  0.00000000E+00
  0.00000000E+00  0.00000000E+00  0.00000000E+00
  0.00000000E+00  0.00000000E+00  0.00000000E+00
  0.00000000E+00  0.00000000E+00  0.00000000E+00
  0.00000000E+00  0.00000000E+00  0.00000000E+00
  0.00000000E+00  0.00000000E+00  0.00000000E+00
  0.00000000E+00  0.00000000E+00  0.00000000E+00
  0.00000000E+00  0.00000000E+00  0.00000000E+00
  0.00000000E+00  0.00000000E+00  0.00000000E+00
  0.00000000E+00  0.00000000E+00  0.00000000E+00
  0.00000000E+00  0.00000000E+00  0.00000000E+00
  0.00000000E+00  0.00000000E+00  0.00000000E+00
  0.00000000E+00  0.00000000E+00  0.00000000E+00
  0.00000000E+00  0.00000000E+00  0.00000000E+00
  0.00000000E+00  0.00000000E+00  0.00000000E+00
  0.00000000E+00  0.00000000E+00  0.00000000E+00
  0.00000000E+00  0.00000000E+00  0.00000000E+00
  0.00000000E+00  0.00000000E+00  0.00000000E+00
  0.00000000E+00  0.00000000E+00  0.00000000E+00
  0.00000000E+00  0.00000000E+00  0.00000000E+00
  0.00000000E+00  0.00000000E+00  0.00000000E+00
  0.00000000E+00  0.00000000E+00  0.00000000E+00
  0.00000000E+00  0.00000000E+00  0.00000000E+00
  0.00000000E+00  0.00000000E+00  0.00000000E+00
  0.00000000E+00  0.00000000E+00  0.00000000E+00
  0.00000000E+00  0.00000000E+00  0.00000000E+00
  0.00000000E+00  0.00000000E+00  0.00000000E+00
  0.00000000E+00  0.00000000E+00  0.00000000E+00
  0.00000000E+00  0.00000000E+00  0.00000000E+00
  0.00000000E+00  0.00000000E+00  0.00000000E+00
  0.00000000E+00  0.00000000E+00  0.00000000E+00
  0.00000000E+00  0.00000000E+00  0.00000000E+00
  0.00000000E+00  0.00000000E+00  0.00000000E+00
  0.00000000E+00  0.00000000E+00  0.00000000E+00
  0.00000000E+00  0.00000000E+00  0.00000000E+00
  0.00000000E+00  0.00000000E+00  0.00000000E+00
  0.00000000E+00  0.00000000E+00  0.00000000E+00
  0.00000000E+00  0.00000000E+00  0.00000000E+00
  0.00000000E+00  0.00000000E+00  0.00000000E+00
  0.00000000E+00  0.00000000E+00  0.00000000E+00
  0.00000000E+00  0.00000000E+00  0.00000000E+00
  0.00000000E+00  0.00000000E+00  0.00000000E+00
  0.00000000E+00  0.00000000E+00  0.00000000E+00
  0.00000000E+00  0.00000000E+00  0.00000000E+00
  0.00000000E+00  0.00000000E+00  0.00000000E+00
  0.00000000E+00  0.00000000E+00  0.00000000E+00
  0.00000000E+00  0.00000000E+00  0.00000000E+00
  0.00000000E+00  0.00000000E+00  0.00000000E+00
  0.00000000E+00  0.00000000E+00  0.00000000E+00
  0.00000000E+00  0.00000000E+00  0.00000000E+00
  0.00000000E+00  0.00000000E+00  0.00000000E+00
  0.00000000E+00  0.00000000E+00  0.00000000E+00
  0.00000000E+00  0.00000000E+00  0.00000000E+00
  0.00000000E+00  0.00000000E+00  0.00000000E+00
  0.00000000E+00  0.00000000E+00  0.00000000E+00
  0.00000000E+00  0.00000000E+00  0.00000000E+00
  0.00000000E+00  0.00000000E+00  0.00000000E+00
  0.00000000E+00  0.00000000E+00  0.00000000E+00
  0.00000000E+00  0.00000000E+00  0.00000000E+00
  0.00000000E+00  0.00000000E+00  0.00000000E+00
  0.00000000E+00  0.00000000E+00  0.00000000E+00
  0.00000000E+00  0.00000000E+00  0.00000000E+00
  0.00000000E+00  0.00000000E+00  0.00000000E+00
  0.00000000E+00  0.00000000E+00  0.00000000E+00
  0.00000000E+00  0.00000000E+00  0.00000000E+00
  0.00000000E+00  0.00000000E+00  0.00000000E+00
  0.00000000E+00  0.00000000E+00  0.00000000E+00
  0.00000000E+00  0.00000000E+00  0.00000000E+00
  0.00000000E+00  0.00000000E+00  0.00000000E+00
  0.00000000E+00  0.00000000E+00  0.00000000E+00
  0.00000000E+00  0.00000000E+00  0.00000000E+00
  0.00000000E+00  0.00000000E+00  0.00000000E+00
  0.00000000E+00  0.00000000E+00  0.00000000E+00
  0.00000000E+00  0.00000000E+00  0.00000000E+00
  0.00000000E+00  0.00000000E+00  0.00000000E+00
  0.00000000E+00  0.00000000E+00  0.00000000E+00
  0.00000000E+00  0.00000000E+00  0.00000000E+00
  0.00000000E+00  0.00000000E+00  0.00000000E+00
  0.00000000E+00  0.00000000E+00  0.00000000E+00
  0.00000000E+00  0.00000000E+00  0.00000000E+00
  0.00000000E+00  0.00000000E+00  0.00000000E+00
  0.00000000E+00  0.00000000E+00  0.00000000E+00
  0.00000000E+00  0.00000000E+00  0.00000000E+00
  0.00000000E+00  0.00000000E+00  0.00000000E+00
  0.00000000E+00  0.00000000E+00  0.00000000E+00
  0.00000000E+00  0.00000000E+00  0.00000000E+00
  0.00000000E+00  0.00000000E+00  0.00000000E+00
  0.00000000E+00  0.00000000E+00  0.00000000E+00
  0.00000000E+00  0.00000000E+00  0.00000000E+00
