Li48 Al16 N32
1.0
9.520657 0.000000 0.000000
0.000000 9.520657 0.000000
0.000000 0.000000 9.520657
Li Al N
48 16 32
direct
0.848001 0.624513 0.889281 Li
0.651999 0.375487 0.389281 Li
0.651999 0.624513 0.110719 Li
0.124513 0.610719 0.151999 Li
0.389281 0.651999 0.375487 Li
0.610719 0.151999 0.124513 Li
0.124513 0.389281 0.348001 Li
0.389281 0.348001 0.124513 Li
0.875487 0.889281 0.151999 Li
0.610719 0.848001 0.375487 Li
0.875487 0.110719 0.348001 Li
0.848001 0.375487 0.610719 Li
0.651999 0.875487 0.610719 Li
0.848001 0.124513 0.110719 Li
0.848001 0.875487 0.389281 Li
0.375487 0.889281 0.348001 Li
0.110719 0.848001 0.124513 Li
0.889281 0.348001 0.375487 Li
0.375487 0.110719 0.151999 Li
0.651999 0.124513 0.889281 Li
0.624513 0.610719 0.348001 Li
0.889281 0.651999 0.124513 Li
0.624513 0.389281 0.151999 Li
0.110719 0.151999 0.375487 Li
0.348001 0.124513 0.389281 Li
0.151999 0.875487 0.889281 Li
0.151999 0.124513 0.610719 Li
0.624513 0.110719 0.651999 Li
0.889281 0.151999 0.875487 Li
0.110719 0.651999 0.624513 Li
0.624513 0.889281 0.848001 Li
0.889281 0.848001 0.624513 Li
0.375487 0.389281 0.651999 Li
0.110719 0.348001 0.875487 Li
0.375487 0.610719 0.848001 Li
0.348001 0.875487 0.110719 Li
0.151999 0.375487 0.110719 Li
0.348001 0.624513 0.610719 Li
0.348001 0.375487 0.889281 Li
0.875487 0.389281 0.848001 Li
0.610719 0.348001 0.624513 Li
0.389281 0.848001 0.875487 Li
0.875487 0.610719 0.651999 Li
0.151999 0.624513 0.389281 Li
0.124513 0.110719 0.848001 Li
0.389281 0.151999 0.624513 Li
0.124513 0.889281 0.651999 Li
0.610719 0.651999 0.875487 Li
0.115108 0.884892 0.384892 Al
0.884892 0.384892 0.115108 Al
0.884892 0.615108 0.384892 Al
0.615108 0.615108 0.615108 Al
0.884892 0.115108 0.615108 Al
0.115108 0.615108 0.884892 Al
0.615108 0.884892 0.115108 Al
0.884892 0.884892 0.884892 Al
0.615108 0.384892 0.884892 Al
0.384892 0.884892 0.615108 Al
0.384892 0.115108 0.884892 Al
0.115108 0.115108 0.115108 Al
0.384892 0.615108 0.115108 Al
0.615108 0.115108 0.384892 Al
0.115108 0.384892 0.615108 Al
0.384892 0.384892 0.384892 Al
0.000000 0.750000 0.783938 N
0.000000 0.500000 0.000000 N
0.000000 0.500000 0.500000 N
0.500000 0.500000 0.500000 N
0.716062 0.500000 0.750000 N
0.500000 0.750000 0.716062 N
0.750000 0.716062 0.500000 N
0.000000 0.750000 0.283938 N
0.716062 0.000000 0.250000 N
0.250000 0.716062 0.000000 N
0.500000 0.750000 0.216062 N
0.750000 0.783938 0.000000 N
0.250000 0.783938 0.500000 N
0.783938 0.000000 0.750000 N
0.783938 0.500000 0.250000 N
0.500000 0.500000 0.000000 N
0.500000 0.250000 0.283938 N
0.500000 0.000000 0.500000 N
0.500000 0.000000 0.000000 N
0.000000 0.000000 0.000000 N
0.216062 0.000000 0.250000 N
0.000000 0.250000 0.216062 N
0.250000 0.216062 0.000000 N
0.500000 0.250000 0.783938 N
0.216062 0.500000 0.750000 N
0.750000 0.216062 0.500000 N
0.000000 0.250000 0.716062 N
0.250000 0.283938 0.500000 N
0.750000 0.283938 0.000000 N
0.283938 0.500000 0.250000 N
0.283938 0.000000 0.750000 N
0.000000 0.000000 0.500000 N
